Version identifier: 20.1.0.0 | 2020-11-10 | 9bedb6d68
CPXPARAM_Threads                                 1
CPXPARAM_TimeLimit                               100
Generic callback                                 0xfe
Tried aggregator 2 times.
MIP Presolve eliminated 4 rows and 32 columns.
MIP Presolve modified 28 coefficients.
Aggregator did 1 substitutions.
Reduced MIP has 997 rows, 21182 columns, and 62520 nonzeros.
Reduced MIP has 21181 binaries, 0 generals, 0 SOSs, and 0 indicators.
Presolve time = 0.03 sec. (32.53 ticks)
Tried aggregator 1 time.
Reduced MIP has 997 rows, 21182 columns, and 62520 nonzeros.
Reduced MIP has 21181 binaries, 0 generals, 0 SOSs, and 0 indicators.
Presolve time = 0.02 sec. (18.50 ticks)
Probing time = 0.01 sec. (6.67 ticks)
Clique table members: 1714.
MIP emphasis: balance optimality and feasibility.
MIP search method: dynamic search.
Parallel mode: none, using 1 thread.
Root relaxation solution time = 0.01 sec. (10.16 ticks)

        Nodes                                         Cuts/
   Node  Left     Objective  IInf  Best Integer    Best Bound    ItCnt     Gap

      0     0    29255.0811    42                      0.0000        7         
*     0+    0                        40704.4800    29255.0811            28.13%
      0     0    31464.0800    25    40704.4800    MIRcuts: 1      113   22.70%
      0     2    31464.0800    37    40704.4800    32639.1600      113   19.81%
Elapsed time = 2.93 sec. (1364.08 ticks, tree = 0.01 MB, solutions = 1)
      7     7    38313.3960    35    40704.4800    32639.1600      159   19.81%
     10    10    38667.1000    15    40704.4800    32639.1600      167   19.81%
     17    13        cutoff          40704.4800    32639.1600      193   19.81%
     23    14    39535.2350     6    40704.4800    32639.1600      210   19.81%
     25    14    33093.1600    10    40704.4800    32639.1600      343   19.81%
     27    16    33093.1600    18    40704.4800    32639.1600      348   19.81%
     29    18    33744.4178    53    40704.4800    32639.1600      369   19.81%
     30    19    33093.1600     0    40704.4800    32639.1600      376   19.81%
     33    22    33093.1600    14    40704.4800    32639.1600      429   19.81%
     36    25    38963.4800     6    40704.4800    32639.1600      508   19.81%
Elapsed time = 15.78 sec. (8116.35 ticks, tree = 0.37 MB, solutions = 1)
     46    29    38963.4800     9    40704.4800    32639.1600      538   19.81%
     60    29        cutoff          40704.4800    32639.1600      586   19.81%
     72    29        cutoff          40704.4800    32639.1600      610   19.81%
     85    29    33093.1600    20    40704.4800    32880.1600      807   19.22%
     89    33    38963.4800     6    40704.4800    32880.1600      819   19.22%
     91    35    38963.4800    10    40704.4800    32880.1600      887   19.22%
     93    37    38963.4800    10    40704.4800    32880.1600     1315   19.22%
     99    41        cutoff          40704.4800    32880.1600     1391   19.22%
    104    42    35791.4338    17    40704.4800    32880.1600     1845   19.22%
    112    42    35879.9181   130    40704.4800    33093.1600     2366   18.70%
Elapsed time = 49.24 sec. (37497.61 ticks, tree = 0.67 MB, solutions = 1)
    123    51        cutoff          40704.4800    33093.1600     2425   18.70%
    140    68    40144.3700    18    40704.4800    33093.1600     2519   18.70%
    143    71    40447.5830    42    40704.4800    33093.1600     2594   18.70%
    160    84    33252.2509    73    40704.4800    33093.1600     2858   18.70%
    161    84    39113.5709    51    40704.4800    33093.1600     2870   18.70%
    171    92        cutoff          40704.4800    33093.1600     2894   18.70%
    179    94        cutoff          40704.4800    33093.1600     2932   18.70%
    185    98    37291.6320    15    40704.4800    33093.1600     2951   18.70%
    190   101    37291.6320    15    40704.4800    33093.1600     2967   18.70%
    200   103    37993.5400    18    40704.4800    33093.1600     3051   18.70%
Elapsed time = 62.51 sec. (53265.18 ticks, tree = 1.81 MB, solutions = 1)
    207   106    39423.6320    15    40704.4800    33093.1600     3065   18.70%
    219   108        cutoff          40704.4800    33093.1600     3090   18.70%
    226   110    40551.5400    20    40704.4800    33093.1600     3102   18.70%
    233   110    40551.5400     6    40704.4800    33093.1600     3114   18.70%
    237   110    40551.5400     6    40704.4800    33093.1600     3118   18.70%
    244   115    33252.2509    80    40704.4800    33093.1600     3315   18.70%
    245   115    39113.5709    49    40704.4800    33093.1600     3330   18.70%
    261   129    34843.1600    20    40704.4800    33093.1600     3386   18.70%
    269   131        cutoff          40704.4800    33093.1600     3412   18.70%
    274   132        cutoff          40704.4800    33093.1600     3437   18.70%
Elapsed time = 72.16 sec. (64999.72 ticks, tree = 2.36 MB, solutions = 1)
    280   132        cutoff          40704.4800    33093.1600     3460   18.70%
*   285   115      integral     0    39224.0000    33093.1600     3480   15.63%
    286   115    37613.6933     9    39224.0000    33093.1600     3485   15.63%
    290   115    38419.5400    16    39224.0000    33093.1600     3504   15.63%
    302   118    33747.0653   136    39224.0000    33093.1600     3716   15.63%
    320   136    34111.5400    56    39224.0000    33093.1600     3909   15.63%
    340   156    36196.7219    19    39224.0000    33093.1600     4025   15.63%
    371   173    37993.5400    25    39224.0000    33093.1600     4142   15.63%
    396   191    37993.5400    13    39224.0000    33093.1600     4230   15.63%
    401   196    38524.5400    14    39224.0000    33093.1600     4320   15.63%
    404   199    38524.5400     6    39224.0000    33093.1600     4323   15.63%
Elapsed time = 81.49 sec. (78303.83 ticks, tree = 3.68 MB, solutions = 2)
    407   202    38524.5400     6    39224.0000    33093.1600     4326   15.63%
    410   205    38524.5400     6    39224.0000    33093.1600     4329   15.63%
    414   205    33118.3549   172    39224.0000    33093.1600     4530   15.63%
    433   224    35280.5600    19    39224.0000    33093.1600     4685   15.63%
    453   244    36231.0968    32    39224.0000    33093.1600     5105   15.63%
    466   257    36550.0740    30    39224.0000    33093.1600     5209   15.63%
    484   273    36550.0740    26    39224.0000    33093.1600     5372   15.63%

Performing restart 1

Repeating presolve.
Tried aggregator 2 times.
MIP Presolve eliminated 7 rows and 1383 columns.
MIP Presolve modified 19796 coefficients.
Aggregator did 7 substitutions.
Reduced MIP has 983 rows, 19792 columns, and 39578 nonzeros.
Reduced MIP has 19791 binaries, 0 generals, 0 SOSs, and 0 indicators.
Presolve time = 0.02 sec. (27.84 ticks)
Tried aggregator 1 time.
Reduced MIP has 983 rows, 19792 columns, and 39578 nonzeros.
Reduced MIP has 19791 binaries, 0 generals, 0 SOSs, and 0 indicators.
Presolve time = 0.01 sec. (12.73 ticks)
Represolve time = 5.48 sec. (914.55 ticks)

Mixed integer rounding cuts applied:  2
User cuts applied:  468

Root node processing (before b&c):
  Real time             =    2.95 sec. (1389.53 ticks)
Sequential b&c:
  Real time             =   96.81 sec. (93782.68 ticks)
                          ------------
Total (root+branch&cut) =   99.76 sec. (95172.22 ticks)
SOLUTION ADMISSIBLE TROUVEE 40704.48 40704.479999999996 350.0 510.0
SOLUTION ADMISSIBLE TROUVEE 39224.0 39224.0 377.0 510.0
